; benchmark generated from python API
(set-info :status unknown)
(declare-fun S_5 () Real)
(declare-fun A_0 () Real)
(declare-fun A_5 () Real)
(declare-fun Q_5 () Real)
(declare-fun A_4 () Real)
(declare-fun A_3 () Real)
(declare-fun A_2 () Real)
(declare-fun A_1 () Real)
(declare-fun S_4 () Real)
(declare-fun S_3 () Real)
(declare-fun S_2 () Real)
(declare-fun S_1 () Real)
(declare-fun S_0 () Real)
(declare-fun C () Real)
(declare-fun B () Real)
(declare-fun a () Real)
(declare-fun L0 () Real)
(assert
 (exists ((I_0 Real) (I_1 Real) (I_2 Real) (I_3 Real) (I_4 Real) (I_5 Real) (L_0 Real) (L_1 Real) (L_2 Real) (L_3 Real) (L_4 Real) (L_5 Real) )(let (($x149 (>= A_5 A_4)))
 (let (($x148 (>= A_4 A_3)))
 (let (($x147 (>= A_3 A_2)))
 (let (($x146 (>= A_2 A_1)))
 (let (($x145 (>= A_1 A_0)))
 (let (($x143 (>= S_5 S_4)))
 (let (($x140 (>= S_4 S_3)))
 (let (($x137 (>= S_3 S_2)))
 (let (($x134 (>= S_2 S_1)))
 (let (($x131 (>= S_1 S_0)))
 (let ((?x168 (- A_5 L_5)))
 (let ((?x101 (* C 1.0)))
 (let ((?x184 (+ I_4 ?x101)))
 (let (($x192 (= I_4 (ite (< (+ I_3 ?x101) (- A_4 L_4)) (+ I_3 ?x101) (- A_4 L_4)))))
 (let (($x197 (= I_3 (ite (< (+ I_2 ?x101) (- A_3 L_3)) (+ I_2 ?x101) (- A_3 L_3)))))
 (let (($x202 (= I_2 (ite (< (+ I_1 ?x101) (- A_2 L_2)) (+ I_1 ?x101) (- A_2 L_2)))))
 (let (($x207 (= I_1 (ite (< (+ I_0 ?x101) (- A_1 L_1)) (+ I_0 ?x101) (- A_1 L_1)))))
 (let (($x211 (> (- (- A_5 L_4) I_5) B)))
 (let (($x221 (> (- (- A_4 L_3) I_4) B)))
 (let (($x231 (> (- (- A_3 L_2) I_3) B)))
 (let (($x241 (> (- (- A_2 L_1) I_2) B)))
 (let (($x251 (> (- (- A_1 L_0) I_1) B)))
 (let (($x50 (= a 1.0)))
 (let ((?x46 (* 5.0 a)))
 (let (($x48 (>= B ?x46)))
 (let (($x47 (>= C ?x46)))
 (let (($x42 (>= L0 0.0)))
 (let (($x260 (>= L_0 0.0)))
 (and $x260 (>= L_0 L0) $x42 (<= I_0 (- A_0 L_0)) $x47 $x48 $x50 (=> $x251 (= L_1 (- (- A_1 I_1) B))) (=> (not $x251) (= L_1 L_0)) (=> $x241 (= L_2 (- (- A_2 I_2) B))) (=> (not $x241) (= L_2 L_1)) (=> $x231 (= L_3 (- (- A_3 I_3) B))) (=> (not $x231) (= L_3 L_2)) (=> $x221 (= L_4 (- (- A_4 I_4) B))) (=> (not $x221) (= L_4 L_3)) (=> $x211 (= L_5 (- (- A_5 I_5) B))) (=> (not $x211) (= L_5 L_4)) $x207 $x202 $x197 $x192 (= I_5 (ite (< ?x184 ?x168) ?x184 ?x168)) (>= S_0 (- I_0 ?x101)) (<= S_0 I_0) (>= S_1 I_0) $x131 (<= S_1 I_1) (>= S_2 I_1) $x134 (<= S_2 I_2) (>= S_3 I_2) $x137 (<= S_3 I_3) (>= S_4 I_3) $x140 (<= S_4 I_4) (>= S_5 I_4) $x143 (<= S_5 I_5) $x145 $x146 $x147 $x148 $x149 (= Q_5 (- ?x168 I_5)) (> (- A_0 L_0) S_5)))))))))))))))))))))))))))))))
 )
(check-sat)
